============================[ Problem Statistics ]=============================|                                                                             ||  Number of variables:          4242                                         ||  Number of clauses:           10154                                         ||  Parse time:                   0.54 s                                       ||                                                                             |============================[ Search Statistics ]==============================| Conflicts |          ORIGINAL         |          LEARNT          | Progress ||           |    Vars  Clauses Literals |    Limit  Clauses Lit/Cl |          |===============================================================================|       100 |    1591     6359   864570 |     2331      100     53 | 62.501 % ||       250 |    1591     6359   864570 |     2564      250     75 | 62.495 % |===============================================================================restarts              : 3conflicts             : 301            (366 /sec)decisions             : 566            (0.00 % random) (689 /sec)propagations          : 11855          (14422 /sec)conflict literals     : 23754          (94.74 % deleted)CPU time              : 0.822 sSATISFIABLE